* ENCODING=ISO-8859-1
NAME          D:\work\codes\coin-or\coin-all\coin-all-trunk\Dip\MSVisualStudio\v10\DecompExamples\BENMIPBlock\atm_5_10_1.lp
ROWS
 N  OBJROW            
 L  r0                
 L  r1                
 L  r2                
 E  r3                
 L  r4                
 E  r5                
 G  r6                
 L  r7                
 L  r8                
 E  r9                
 L  r10               
 E  r11               
 L  r12               
 L  r13               
 L  r14               
 L  r15               
COLUMNS
    fp(100_ATM0,DATE0)  OBJROW                                    1
    fp(100_ATM0,DATE0)  r0                                        1
    fp(100_ATM0,DATE0)  r3                                        1
    fp(101_ATM0,DATE1)  OBJROW                                    1
    fp(101_ATM0,DATE1)  r1                                        1
    fp(101_ATM0,DATE1)  r5                                        1
    fp(102_ATM0,DATE2)  OBJROW                                    1
    fp(102_ATM0,DATE2)  r2                                        1
    fp(103_ATM0,DATE3)  OBJROW                                    1
    fp(104_ATM0,DATE4)  OBJROW                                    1
    fp(105_ATM0,DATE5)  OBJROW                                    1
    fp(106_ATM0,DATE6)  OBJROW                                    1
    fp(107_ATM0,DATE7)  OBJROW                                    1
    fp(108_ATM0,DATE8)  OBJROW                                    1
    fp(109_ATM0,DATE9)  OBJROW                                    1
    fp(110_ATM1,DATE0)  OBJROW                                    1
    fp(110_ATM1,DATE0)  r0                                        1
    fp(111_ATM1,DATE1)  OBJROW                                    1
    fp(111_ATM1,DATE1)  r1                                        1
    fp(112_ATM1,DATE2)  OBJROW                                    1
    fp(112_ATM1,DATE2)  r2                                        1
    fp(113_ATM1,DATE3)  OBJROW                                    1
    fp(114_ATM1,DATE4)  OBJROW                                    1
    fp(115_ATM1,DATE5)  OBJROW                                    1
    fp(116_ATM1,DATE6)  OBJROW                                    1
    fp(117_ATM1,DATE7)  OBJROW                                    1
    fp(118_ATM1,DATE8)  OBJROW                                    1
    fp(119_ATM1,DATE9)  OBJROW                                    1
    fp(120_ATM2,DATE0)  OBJROW                                    1
    fp(120_ATM2,DATE0)  r0                                        1
    fp(121_ATM2,DATE1)  OBJROW                                    1
    fp(121_ATM2,DATE1)  r1                                        1
    fp(122_ATM2,DATE2)  OBJROW                                    1
    fp(122_ATM2,DATE2)  r2                                        1
    fp(123_ATM2,DATE3)  OBJROW                                    1
    fp(124_ATM2,DATE4)  OBJROW                                    1
    fp(125_ATM2,DATE5)  OBJROW                                    1
    fp(126_ATM2,DATE6)  OBJROW                                    1
    fp(127_ATM2,DATE7)  OBJROW                                    1
    fp(128_ATM2,DATE8)  OBJROW                                    1
    fp(129_ATM2,DATE9)  OBJROW                                    1
    fp(130_ATM3,DATE0)  OBJROW                                    1
    fp(130_ATM3,DATE0)  r0                                        1
    fp(130_ATM3,DATE0)  r9                                        1
    fp(131_ATM3,DATE1)  OBJROW                                    1
    fp(131_ATM3,DATE1)  r1                                        1
    fp(131_ATM3,DATE1)  r11                                       1
    fp(132_ATM3,DATE2)  OBJROW                                    1
    fp(132_ATM3,DATE2)  r2                                        1
    fp(133_ATM3,DATE3)  OBJROW                                    1
    fp(134_ATM3,DATE4)  OBJROW                                    1
    fp(135_ATM3,DATE5)  OBJROW                                    1
    fp(136_ATM3,DATE6)  OBJROW                                    1
    fp(137_ATM3,DATE7)  OBJROW                                    1
    fp(138_ATM3,DATE8)  OBJROW                                    1
    fp(139_ATM3,DATE9)  OBJROW                                    1
    fp(140_ATM4,DATE0)  OBJROW                                    1
    fp(140_ATM4,DATE0)  r0                                        1
    fp(141_ATM4,DATE1)  OBJROW                                    1
    fp(141_ATM4,DATE1)  r1                                        1
    fp(142_ATM4,DATE2)  OBJROW                                    1
    fp(142_ATM4,DATE2)  r2                                        1
    fp(143_ATM4,DATE3)  OBJROW                                    1
    fp(144_ATM4,DATE4)  OBJROW                                    1
    fp(145_ATM4,DATE5)  OBJROW                                    1
    fp(146_ATM4,DATE6)  OBJROW                                    1
    fp(147_ATM4,DATE7)  OBJROW                                    1
    fp(148_ATM4,DATE8)  OBJROW                                    1
    fp(149_ATM4,DATE9)  OBJROW                                    1
    fm(150_ATM0,DATE0)  OBJROW                                    1
    fm(150_ATM0,DATE0)  r0                                       -1
    fm(150_ATM0,DATE0)  r3                                       -1
    fm(150_ATM0,DATE0)  r4                                        1
    fm(151_ATM0,DATE1)  OBJROW                                    1
    fm(151_ATM0,DATE1)  r1                                       -1
    fm(151_ATM0,DATE1)  r5                                       -1
    fm(152_ATM0,DATE2)  OBJROW                                    1
    fm(152_ATM0,DATE2)  r2                                       -1
    fm(153_ATM0,DATE3)  OBJROW                                    1
    fm(154_ATM0,DATE4)  OBJROW                                    1
    fm(155_ATM0,DATE5)  OBJROW                                    1
    fm(156_ATM0,DATE6)  OBJROW                                    1
    fm(157_ATM0,DATE7)  OBJROW                                    1
    fm(158_ATM0,DATE8)  OBJROW                                    1
    fm(159_ATM0,DATE9)  OBJROW                                    1
    fm(160_ATM1,DATE0)  OBJROW                                    1
    fm(160_ATM1,DATE0)  r0                                       -1
    fm(161_ATM1,DATE1)  OBJROW                                    1
    fm(161_ATM1,DATE1)  r1                                       -1
    fm(162_ATM1,DATE2)  OBJROW                                    1
    fm(162_ATM1,DATE2)  r2                                       -1
    fm(163_ATM1,DATE3)  OBJROW                                    1
    fm(164_ATM1,DATE4)  OBJROW                                    1
    fm(165_ATM1,DATE5)  OBJROW                                    1
    fm(166_ATM1,DATE6)  OBJROW                                    1
    fm(167_ATM1,DATE7)  OBJROW                                    1
    fm(168_ATM1,DATE8)  OBJROW                                    1
    fm(169_ATM1,DATE9)  OBJROW                                    1
    fm(170_ATM2,DATE0)  OBJROW                                    1
    fm(170_ATM2,DATE0)  r0                                       -1
    fm(171_ATM2,DATE1)  OBJROW                                    1
    fm(171_ATM2,DATE1)  r1                                       -1
    fm(172_ATM2,DATE2)  OBJROW                                    1
    fm(172_ATM2,DATE2)  r2                                       -1
    fm(173_ATM2,DATE3)  OBJROW                                    1
    fm(174_ATM2,DATE4)  OBJROW                                    1
    fm(175_ATM2,DATE5)  OBJROW                                    1
    fm(176_ATM2,DATE6)  OBJROW                                    1
    fm(177_ATM2,DATE7)  OBJROW                                    1
    fm(178_ATM2,DATE8)  OBJROW                                    1
    fm(179_ATM2,DATE9)  OBJROW                                    1
    fm(180_ATM3,DATE0)  OBJROW                                    1
    fm(180_ATM3,DATE0)  r0                                       -1
    fm(180_ATM3,DATE0)  r9                                       -1
    fm(180_ATM3,DATE0)  r10                                       1
    fm(181_ATM3,DATE1)  OBJROW                                    1
    fm(181_ATM3,DATE1)  r1                                       -1
    fm(181_ATM3,DATE1)  r11                                      -1
    fm(182_ATM3,DATE2)  OBJROW                                    1
    fm(182_ATM3,DATE2)  r2                                       -1
    fm(183_ATM3,DATE3)  OBJROW                                    1
    fm(184_ATM3,DATE4)  OBJROW                                    1
    fm(185_ATM3,DATE5)  OBJROW                                    1
    fm(186_ATM3,DATE6)  OBJROW                                    1
    fm(187_ATM3,DATE7)  OBJROW                                    1
    fm(188_ATM3,DATE8)  OBJROW                                    1
    fm(189_ATM3,DATE9)  OBJROW                                    1
    fm(190_ATM4,DATE0)  OBJROW                                    1
    fm(190_ATM4,DATE0)  r0                                       -1
    fm(191_ATM4,DATE1)  OBJROW                                    1
    fm(191_ATM4,DATE1)  r1                                       -1
    fm(192_ATM4,DATE2)  OBJROW                                    1
    fm(192_ATM4,DATE2)  r2                                       -1
    fm(193_ATM4,DATE3)  OBJROW                                    1
    fm(194_ATM4,DATE4)  OBJROW                                    1
    fm(195_ATM4,DATE5)  OBJROW                                    1
    fm(196_ATM4,DATE6)  OBJROW                                    1
    fm(197_ATM4,DATE7)  OBJROW                                    1
    fm(198_ATM4,DATE8)  OBJROW                                    1
    fm(199_ATM4,DATE9)  OBJROW                                    1
    MARK0000  'MARKER'                 'INTORG'
    x1(0_ATM0,1)        OBJROW                                    1
    x1(0_ATM0,1)        r3                                   -282.2
    x1(0_ATM0,1)        r5                                   -133.7
    x1(1_ATM0,2)        OBJROW                                    1
    x1(1_ATM0,2)        r3                                   -564.4
    x1(1_ATM0,2)        r5                                   -267.4
    x1(2_ATM0,3)        OBJROW                                    1
    x1(2_ATM0,3)        r3                                   -846.6
    x1(2_ATM0,3)        r5                                   -401.1
    x1(3_ATM0,4)        OBJROW                                    1
    x1(3_ATM0,4)        r3                                  -1128.8
    x1(3_ATM0,4)        r5                                   -534.8
    x1(4_ATM0,5)        OBJROW                                    1
    x1(4_ATM0,5)        r3                                    -1411
    x1(4_ATM0,5)        r5                                   -668.5
    x1(5_ATM0,6)        OBJROW                                    1
    x1(5_ATM0,6)        r3                                  -1693.2
    x1(5_ATM0,6)        r5                                   -802.2
    x1(6_ATM0,7)        OBJROW                                    1
    x1(6_ATM0,7)        r3                                  -1975.4
    x1(6_ATM0,7)        r5                                   -935.9
    x1(7_ATM0,8)        OBJROW                                    1
    x1(7_ATM0,8)        r3                                  -2257.6
    x1(7_ATM0,8)        r5                                  -1069.6
    x1(8_ATM0,9)        OBJROW                                    1
    x1(8_ATM0,9)        r3                                  -2539.8
    x1(8_ATM0,9)        r5                                  -1203.3
    x1(9_ATM0,10)       OBJROW                                    1
    x1(9_ATM0,10)       r3                                    -2822
    x1(9_ATM0,10)       r5                                    -1337
    x1(10_ATM1,1)       OBJROW                                    2
    x1(11_ATM1,2)       OBJROW                                    2
    x1(12_ATM1,3)       OBJROW                                    2
    x1(13_ATM1,4)       OBJROW                                    2
    x1(14_ATM1,5)       OBJROW                                    2
    x1(15_ATM1,6)       OBJROW                                    2
    x1(16_ATM1,7)       OBJROW                                    2
    x1(17_ATM1,8)       OBJROW                                    2
    x1(18_ATM1,9)       OBJROW                                    2
    x1(19_ATM1,10)      OBJROW                                    2
    x1(20_ATM2,1)       OBJROW                                    2
    x1(21_ATM2,2)       OBJROW                                    2
    x1(22_ATM2,3)       OBJROW                                    2
    x1(23_ATM2,4)       OBJROW                                    2
    x1(24_ATM2,5)       OBJROW                                    2
    x1(25_ATM2,6)       OBJROW                                    2
    x1(26_ATM2,7)       OBJROW                                    2
    x1(27_ATM2,8)       OBJROW                                    2
    x1(28_ATM2,9)       OBJROW                                    2
    x1(28_ATM2,9)       r6                                       -1
    x1(29_ATM2,10)      OBJROW                                    2
    x1(29_ATM2,10)      r7                                       -1
    x1(30_ATM3,1)       OBJROW                                    2
    x1(30_ATM3,1)       r9                                     48.2
    x1(30_ATM3,1)       r11                                  -403.6
    x1(31_ATM3,2)       OBJROW                                    2
    x1(31_ATM3,2)       r9                                     96.4
    x1(31_ATM3,2)       r11                                  -807.2
    x1(32_ATM3,3)       OBJROW                                    2
    x1(32_ATM3,3)       r9                                    144.6
    x1(32_ATM3,3)       r11                                 -1210.8
    x1(33_ATM3,4)       OBJROW                                    2
    x1(33_ATM3,4)       r9                                    192.8
    x1(33_ATM3,4)       r11                                 -1614.4
    x1(34_ATM3,5)       OBJROW                                    2
    x1(34_ATM3,5)       r9                                      241
    x1(34_ATM3,5)       r11                                   -2018
    x1(35_ATM3,6)       OBJROW                                    2
    x1(35_ATM3,6)       r9                                    289.2
    x1(35_ATM3,6)       r11                                 -2421.6
    x1(36_ATM3,7)       OBJROW                                    2
    x1(36_ATM3,7)       r9                                    337.4
    x1(36_ATM3,7)       r11                                 -2825.2
    x1(37_ATM3,8)       OBJROW                                    2
    x1(37_ATM3,8)       r9                                    385.6
    x1(37_ATM3,8)       r11                                 -3228.8
    x1(38_ATM3,9)       OBJROW                                    2
    x1(38_ATM3,9)       r9                                    433.8
    x1(38_ATM3,9)       r11                                 -3632.4
    x1(39_ATM3,10)      OBJROW                                    2
    x1(39_ATM3,10)      r9                                      482
    x1(39_ATM3,10)      r11                                   -4036
    x1(40_ATM4,1)       OBJROW                                    2
    x1(40_ATM4,1)       r12                                       1
    x1(40_ATM4,1)       r14                                      -1
    x1(41_ATM4,2)       OBJROW                                    2
    x1(41_ATM4,2)       r12                                       1
    x1(42_ATM4,3)       OBJROW                                    2
    x1(42_ATM4,3)       r12                                       1
    x1(43_ATM4,4)       OBJROW                                    2
    x1(43_ATM4,4)       r12                                       1
    x1(44_ATM4,5)       OBJROW                                    2
    x1(44_ATM4,5)       r12                                       1
    x1(45_ATM4,6)       OBJROW                                    2
    x1(45_ATM4,6)       r12                                       1
    x1(46_ATM4,7)       OBJROW                                    2
    x1(46_ATM4,7)       r12                                       1
    x1(47_ATM4,8)       OBJROW                                    2
    x1(47_ATM4,8)       r12                                       1
    x1(48_ATM4,9)       OBJROW                                    2
    x1(48_ATM4,9)       r12                                       1
    x1(49_ATM4,10)      OBJROW                                    2
    x1(49_ATM4,10)      r12                                       1
    v(210_ATM0,DATE0)   OBJROW                                    2
    v(210_ATM0,DATE0)   r4                                     -780
    v(211_ATM0,DATE1)   OBJROW                                    2
    v(212_ATM0,DATE2)   OBJROW                                    2
    v(213_ATM0,DATE3)   OBJROW                                    2
    v(214_ATM0,DATE4)   OBJROW                                    2
    v(215_ATM0,DATE5)   OBJROW                                    2
    v(216_ATM0,DATE6)   OBJROW                                    2
    v(217_ATM0,DATE7)   OBJROW                                    2
    v(218_ATM0,DATE8)   OBJROW                                    2
    v(219_ATM0,DATE9)   OBJROW                                    2
    v(220_ATM1,DATE0)   OBJROW                                    2
    v(221_ATM1,DATE1)   OBJROW                                    2
    v(222_ATM1,DATE2)   OBJROW                                    2
    v(223_ATM1,DATE3)   OBJROW                                    2
    v(224_ATM1,DATE4)   OBJROW                                    2
    v(225_ATM1,DATE5)   OBJROW                                    2
    v(226_ATM1,DATE6)   OBJROW                                    2
    v(227_ATM1,DATE7)   OBJROW                                    2
    v(228_ATM1,DATE8)   OBJROW                                    2
    v(229_ATM1,DATE9)   OBJROW                                    2
    v(230_ATM2,DATE0)   OBJROW                                    2
    v(231_ATM2,DATE1)   OBJROW                                    2
    v(232_ATM2,DATE2)   OBJROW                                    2
    v(233_ATM2,DATE3)   OBJROW                                    2
    v(234_ATM2,DATE4)   OBJROW                                    2
    v(235_ATM2,DATE5)   OBJROW                                    2
    v(236_ATM2,DATE6)   OBJROW                                    2
    v(237_ATM2,DATE7)   OBJROW                                    2
    v(238_ATM2,DATE8)   OBJROW                                    2
    v(239_ATM2,DATE9)   OBJROW                                    2
    v(240_ATM3,DATE0)   OBJROW                                    2
    v(240_ATM3,DATE0)   r10                                    -853
    v(241_ATM3,DATE1)   OBJROW                                    2
    v(242_ATM3,DATE2)   OBJROW                                    2
    v(243_ATM3,DATE3)   OBJROW                                    2
    v(244_ATM3,DATE4)   OBJROW                                    2
    v(245_ATM3,DATE5)   OBJROW                                    2
    v(246_ATM3,DATE6)   OBJROW                                    2
    v(247_ATM3,DATE7)   OBJROW                                    2
    v(248_ATM3,DATE8)   OBJROW                                    2
    v(249_ATM3,DATE9)   OBJROW                                    2
    v(250_ATM4,DATE0)   OBJROW                                    2
    v(250_ATM4,DATE0)   r13                                       1
    v(251_ATM4,DATE1)   OBJROW                                    2
    v(251_ATM4,DATE1)   r13                                       1
    v(252_ATM4,DATE2)   OBJROW                                    2
    v(252_ATM4,DATE2)   r13                                       1
    v(253_ATM4,DATE3)   OBJROW                                    2
    v(253_ATM4,DATE3)   r13                                       1
    v(254_ATM4,DATE4)   OBJROW                                    2
    v(254_ATM4,DATE4)   r13                                       1
    v(255_ATM4,DATE5)   OBJROW                                    2
    v(255_ATM4,DATE5)   r13                                       1
    v(256_ATM4,DATE6)   OBJROW                                    2
    v(256_ATM4,DATE6)   r13                                       1
    v(257_ATM4,DATE7)   OBJROW                                    2
    v(257_ATM4,DATE7)   r13                                       1
    v(258_ATM4,DATE8)   OBJROW                                    2
    v(258_ATM4,DATE8)   r13                                       1
    v(259_ATM4,DATE9)   OBJROW                                    2
    v(259_ATM4,DATE9)   r13                                       1
    MARK0001  'MARKER'                 'INTEND'
    z(50_ATM0,1)        r3                                    198.4
    z(50_ATM0,1)        r5                                      253
    z(51_ATM0,2)        r3                                    396.8
    z(51_ATM0,2)        r5                                      506
    z(52_ATM0,3)        r3                                    595.2
    z(52_ATM0,3)        r5                                      759
    z(53_ATM0,4)        r3                                    793.6
    z(53_ATM0,4)        r5                                     1012
    z(54_ATM0,5)        r3                                      992
    z(54_ATM0,5)        r5                                     1265
    z(55_ATM0,6)        r3                                   1190.4
    z(55_ATM0,6)        r5                                     1518
    z(56_ATM0,7)        r3                                   1388.8
    z(56_ATM0,7)        r5                                     1771
    z(57_ATM0,8)        r3                                   1587.2
    z(57_ATM0,8)        r5                                     2024
    z(58_ATM0,9)        r3                                   1785.6
    z(58_ATM0,9)        r5                                     2277
    z(59_ATM0,10)       r3                                     1984
    z(59_ATM0,10)       r5                                     2530
    x2(200_ATM0)        r3                                    -1984
    x2(200_ATM0)        r5                                    -2530
    x3(205_ATM0)        r3                                    -1045
    x3(205_ATM0)        r5                                    -1510
    z(78_ATM2,9)        r6                                        1
    x2(202_ATM2)        r6                                       -1
    x2(202_ATM2)        r8                                       -1
    z(79_ATM2,10)       r7                                        1
    z(79_ATM2,10)       r8                                        1
    z(80_ATM3,1)        r9                                    294.3
    z(80_ATM3,1)        r11                                     9.3
    z(81_ATM3,2)        r9                                    588.6
    z(81_ATM3,2)        r11                                    18.6
    z(82_ATM3,3)        r9                                    882.9
    z(82_ATM3,3)        r11                                    27.9
    z(83_ATM3,4)        r9                                   1177.2
    z(83_ATM3,4)        r11                                    37.2
    z(84_ATM3,5)        r9                                   1471.5
    z(84_ATM3,5)        r11                                    46.5
    z(85_ATM3,6)        r9                                   1765.8
    z(85_ATM3,6)        r11                                    55.8
    z(86_ATM3,7)        r9                                   2060.1
    z(86_ATM3,7)        r11                                    65.1
    z(87_ATM3,8)        r9                                   2354.4
    z(87_ATM3,8)        r11                                    74.4
    z(88_ATM3,9)        r9                                   2648.7
    z(88_ATM3,9)        r11                                    83.7
    z(89_ATM3,10)       r9                                     2943
    z(89_ATM3,10)       r11                                      93
    x2(203_ATM3)        r9                                    -2943
    x2(203_ATM3)        r11                                     -93
    x3(208_ATM3)        r9                                    -1593
    x3(208_ATM3)        r11                                   -1387
    z(90_ATM4,1)        r14                                       1
    z(90_ATM4,1)        r15                                       1
    x2(204_ATM4)        r15                                      -1
RHS
    rhs                 r0                                     5829
    rhs                 r1                                     9829
    rhs                 r2                                       70
    rhs                 r3                                      593
    rhs                 r5                                    -2177
    rhs                 r6                                       -1
    rhs                 r9                                     -178
    rhs                 r11                                     286
    rhs                 r12                                       1
    rhs                 r13                                       5
BOUNDS
 UP bnd                 fm(150_ATM0,DATE0)                      780
 UP bnd                 fm(151_ATM0,DATE1)                     2351
 UP bnd                 fm(152_ATM0,DATE2)                     2288
 UP bnd                 fm(153_ATM0,DATE3)                     1357
 UP bnd                 fm(154_ATM0,DATE4)                     3637
 UP bnd                 fm(155_ATM0,DATE5)                     1371
 UP bnd                 fm(156_ATM0,DATE6)                     2225
 UP bnd                 fm(157_ATM0,DATE7)                     1721
 UP bnd                 fm(158_ATM0,DATE8)                     2110
 UP bnd                 fm(159_ATM0,DATE9)                     3118
 UP bnd                 fm(160_ATM1,DATE0)                     2830
 UP bnd                 fm(161_ATM1,DATE1)                      184
 UP bnd                 fm(162_ATM1,DATE2)                      282
 UP bnd                 fm(163_ATM1,DATE3)                      998
 UP bnd                 fm(164_ATM1,DATE4)                     3198
 UP bnd                 fm(165_ATM1,DATE5)                     3170
 UP bnd                 fm(166_ATM1,DATE6)                     2301
 UP bnd                 fm(167_ATM1,DATE7)                      719
 UP bnd                 fm(168_ATM1,DATE8)                      818
 UP bnd                 fm(169_ATM1,DATE9)                     1426
 UP bnd                 fm(170_ATM2,DATE0)                     2803
 UP bnd                 fm(171_ATM2,DATE1)                     1031
 UP bnd                 fm(172_ATM2,DATE2)                       23
 UP bnd                 fm(173_ATM2,DATE3)                      376
 UP bnd                 fm(174_ATM2,DATE4)                      541
 UP bnd                 fm(175_ATM2,DATE5)                     2195
 UP bnd                 fm(176_ATM2,DATE6)                     3676
 UP bnd                 fm(177_ATM2,DATE7)                     2475
 UP bnd                 fm(178_ATM2,DATE8)                     1232
 UP bnd                 fm(179_ATM2,DATE9)                      352
 UP bnd                 fm(180_ATM3,DATE0)                      853
 UP bnd                 fm(181_ATM3,DATE1)                     2310
 UP bnd                 fm(182_ATM3,DATE2)                     3542
 UP bnd                 fm(183_ATM3,DATE3)                      739
 UP bnd                 fm(184_ATM3,DATE4)                     1315
 UP bnd                 fm(185_ATM3,DATE5)                     2929
 UP bnd                 fm(186_ATM3,DATE6)                     2928
 UP bnd                 fm(187_ATM3,DATE7)                     2101
 UP bnd                 fm(188_ATM3,DATE8)                     3522
 UP bnd                 fm(189_ATM3,DATE9)                      319
 UP bnd                 fm(190_ATM4,DATE0)                     1184
 UP bnd                 fm(191_ATM4,DATE1)                      181
 UP bnd                 fm(192_ATM4,DATE2)                     1096
 UP bnd                 fm(193_ATM4,DATE3)                     1568
 UP bnd                 fm(194_ATM4,DATE4)                     2710
 UP bnd                 fm(195_ATM4,DATE5)                     1096
 UP bnd                 fm(196_ATM4,DATE6)                     3834
 UP bnd                 fm(197_ATM4,DATE7)                     4214
 UP bnd                 fm(198_ATM4,DATE8)                     1902
 UP bnd                 fm(199_ATM4,DATE9)                     3280
 UP bnd                 x1(0_ATM0,1)                              1
 UP bnd                 x1(1_ATM0,2)                              1
 UP bnd                 x1(2_ATM0,3)                              1
 UP bnd                 x1(3_ATM0,4)                              1
 UP bnd                 x1(4_ATM0,5)                              1
 UP bnd                 x1(5_ATM0,6)                              1
 UP bnd                 x1(6_ATM0,7)                              1
 UP bnd                 x1(7_ATM0,8)                              1
 UP bnd                 x1(8_ATM0,9)                              1
 UP bnd                 x1(9_ATM0,10)                             1
 UP bnd                 x1(10_ATM1,1)                             1
 UP bnd                 x1(11_ATM1,2)                             1
 UP bnd                 x1(12_ATM1,3)                             1
 UP bnd                 x1(13_ATM1,4)                             1
 UP bnd                 x1(14_ATM1,5)                             1
 UP bnd                 x1(15_ATM1,6)                             1
 UP bnd                 x1(16_ATM1,7)                             1
 UP bnd                 x1(17_ATM1,8)                             1
 UP bnd                 x1(18_ATM1,9)                             1
 UP bnd                 x1(19_ATM1,10)                            1
 UP bnd                 x1(20_ATM2,1)                             1
 UP bnd                 x1(21_ATM2,2)                             1
 UP bnd                 x1(22_ATM2,3)                             1
 UP bnd                 x1(23_ATM2,4)                             1
 UP bnd                 x1(24_ATM2,5)                             1
 UP bnd                 x1(25_ATM2,6)                             1
 UP bnd                 x1(26_ATM2,7)                             1
 UP bnd                 x1(27_ATM2,8)                             1
 UP bnd                 x1(28_ATM2,9)                             1
 UP bnd                 x1(29_ATM2,10)                            1
 UP bnd                 x1(30_ATM3,1)                             1
 UP bnd                 x1(31_ATM3,2)                             1
 UP bnd                 x1(32_ATM3,3)                             1
 UP bnd                 x1(33_ATM3,4)                             1
 UP bnd                 x1(34_ATM3,5)                             1
 UP bnd                 x1(35_ATM3,6)                             1
 UP bnd                 x1(36_ATM3,7)                             1
 UP bnd                 x1(37_ATM3,8)                             1
 UP bnd                 x1(38_ATM3,9)                             1
 UP bnd                 x1(39_ATM3,10)                            1
 UP bnd                 x1(40_ATM4,1)                             1
 UP bnd                 x1(41_ATM4,2)                             1
 UP bnd                 x1(42_ATM4,3)                             1
 UP bnd                 x1(43_ATM4,4)                             1
 UP bnd                 x1(44_ATM4,5)                             1
 UP bnd                 x1(45_ATM4,6)                             1
 UP bnd                 x1(46_ATM4,7)                             1
 UP bnd                 x1(47_ATM4,8)                             1
 UP bnd                 x1(48_ATM4,9)                             1
 UP bnd                 x1(49_ATM4,10)                            1
 UP bnd                 v(210_ATM0,DATE0)                         1
 UP bnd                 v(211_ATM0,DATE1)                         1
 UP bnd                 v(212_ATM0,DATE2)                         1
 UP bnd                 v(213_ATM0,DATE3)                         1
 UP bnd                 v(214_ATM0,DATE4)                         1
 UP bnd                 v(215_ATM0,DATE5)                         1
 UP bnd                 v(216_ATM0,DATE6)                         1
 UP bnd                 v(217_ATM0,DATE7)                         1
 UP bnd                 v(218_ATM0,DATE8)                         1
 UP bnd                 v(219_ATM0,DATE9)                         1
 UP bnd                 v(220_ATM1,DATE0)                         1
 UP bnd                 v(221_ATM1,DATE1)                         1
 UP bnd                 v(222_ATM1,DATE2)                         1
 UP bnd                 v(223_ATM1,DATE3)                         1
 UP bnd                 v(224_ATM1,DATE4)                         1
 UP bnd                 v(225_ATM1,DATE5)                         1
 UP bnd                 v(226_ATM1,DATE6)                         1
 UP bnd                 v(227_ATM1,DATE7)                         1
 UP bnd                 v(228_ATM1,DATE8)                         1
 UP bnd                 v(229_ATM1,DATE9)                         1
 UP bnd                 v(230_ATM2,DATE0)                         1
 UP bnd                 v(231_ATM2,DATE1)                         1
 UP bnd                 v(232_ATM2,DATE2)                         1
 UP bnd                 v(233_ATM2,DATE3)                         1
 UP bnd                 v(234_ATM2,DATE4)                         1
 UP bnd                 v(235_ATM2,DATE5)                         1
 UP bnd                 v(236_ATM2,DATE6)                         1
 UP bnd                 v(237_ATM2,DATE7)                         1
 UP bnd                 v(238_ATM2,DATE8)                         1
 UP bnd                 v(239_ATM2,DATE9)                         1
 UP bnd                 v(240_ATM3,DATE0)                         1
 UP bnd                 v(241_ATM3,DATE1)                         1
 UP bnd                 v(242_ATM3,DATE2)                         1
 UP bnd                 v(243_ATM3,DATE3)                         1
 UP bnd                 v(244_ATM3,DATE4)                         1
 UP bnd                 v(245_ATM3,DATE5)                         1
 UP bnd                 v(246_ATM3,DATE6)                         1
 UP bnd                 v(247_ATM3,DATE7)                         1
 UP bnd                 v(248_ATM3,DATE8)                         1
 UP bnd                 v(249_ATM3,DATE9)                         1
 UP bnd                 v(250_ATM4,DATE0)                         1
 UP bnd                 v(251_ATM4,DATE1)                         1
 UP bnd                 v(252_ATM4,DATE2)                         1
 UP bnd                 v(253_ATM4,DATE3)                         1
 UP bnd                 v(254_ATM4,DATE4)                         1
 UP bnd                 v(255_ATM4,DATE5)                         1
 UP bnd                 v(256_ATM4,DATE6)                         1
 UP bnd                 v(257_ATM4,DATE7)                         1
 UP bnd                 v(258_ATM4,DATE8)                         1
 UP bnd                 v(259_ATM4,DATE9)                         1
 UP bnd                 z(50_ATM0,1)                              1
 UP bnd                 z(51_ATM0,2)                              1
 UP bnd                 z(52_ATM0,3)                              1
 UP bnd                 z(53_ATM0,4)                              1
 UP bnd                 z(54_ATM0,5)                              1
 UP bnd                 z(55_ATM0,6)                              1
 UP bnd                 z(56_ATM0,7)                              1
 UP bnd                 z(57_ATM0,8)                              1
 UP bnd                 z(58_ATM0,9)                              1
 UP bnd                 z(59_ATM0,10)                             1
 UP bnd                 x2(200_ATM0)                              1
 UP bnd                 x3(205_ATM0)                           1000
 UP bnd                 z(78_ATM2,9)                              1
 UP bnd                 x2(202_ATM2)                              1
 UP bnd                 z(79_ATM2,10)                             1
 UP bnd                 z(80_ATM3,1)                              1
 UP bnd                 z(81_ATM3,2)                              1
 UP bnd                 z(82_ATM3,3)                              1
 UP bnd                 z(83_ATM3,4)                              1
 UP bnd                 z(84_ATM3,5)                              1
 UP bnd                 z(85_ATM3,6)                              1
 UP bnd                 z(86_ATM3,7)                              1
 UP bnd                 z(87_ATM3,8)                              1
 UP bnd                 z(88_ATM3,9)                              1
 UP bnd                 z(89_ATM3,10)                             1
 UP bnd                 x2(203_ATM3)                              1
 UP bnd                 x3(208_ATM3)                           1000
 UP bnd                 z(90_ATM4,1)                              1
 UP bnd                 x2(204_ATM4)                              1
ENDATA
